42 42
8 12
33 17
41 20
9 4
34 15
12 3
39 7
10 13
19 21
32 11
21 12
4 3
22 21
14 2
15 18
27 19
30 7
28 19
40 8
24 14
37 2
26 15
17 9
13 5
38 5
7 1
3 14
20 16
18 6
5 6
25 1
2 10
16 9
1 18
31 8
23 11
11 13
36 4
29 20
42 16
6 10
35 17
